p edge 70 525 55
e 56 58
e 56 62
e 56 66
e 56 14
e 56 36
e 56 39
e 56 12
e 56 23
e 56 70
e 56 37
e 56 10
e 56 40
e 56 2
e 56 52
e 56 16
e 58 37
e 58 18
e 58 40
e 58 21
e 58 13
e 58 64
e 58 46
e 58 59
e 58 8
e 58 49
e 58 3
e 58 31
e 58 50
e 58 12
e 27 40
e 27 6
e 27 63
e 27 67
e 27 35
e 27 57
e 27 34
e 27 12
e 27 47
e 27 23
e 27 61
e 27 21
e 27 60
e 27 46
e 27 32
e 40 63
e 40 57
e 40 13
e 40 5
e 40 47
e 40 19
e 40 22
e 40 41
e 40 50
e 40 1
e 40 32
e 40 15
e 29 59
e 29 68
e 29 54
e 29 53
e 29 57
e 29 43
e 29 10
e 29 16
e 29 19
e 29 8
e 29 60
e 29 11
e 29 36
e 29 6
e 29 31
e 59 68
e 59 13
e 59 24
e 59 67
e 59 19
e 59 38
e 59 22
e 59 23
e 59 48
e 59 20
e 59 15
e 59 16
e 59 57
e 19 36
e 19 31
e 19 4
e 19 54
e 19 38
e 19 52
e 19 47
e 19 65
e 19 14
e 19 60
e 19 37
e 19 64
e 36 61
e 36 42
e 36 22
e 36 46
e 36 64
e 36 33
e 36 41
e 36 50
e 36 20
e 36 13
e 36 24
e 36 5
e 68 24
e 68 52
e 68 43
e 68 5
e 68 46
e 68 57
e 68 35
e 68 38
e 68 30
e 68 14
e 68 55
e 68 31
e 68 12
e 30 33
e 30 55
e 30 41
e 30 18
e 30 31
e 30 21
e 30 54
e 30 11
e 30 39
e 30 57
e 30 6
e 30 25
e 30 28
e 30 12
e 33 70
e 33 42
e 33 37
e 33 14
e 33 64
e 33 17
e 33 9
e 33 18
e 33 53
e 33 43
e 33 13
e 33 38
e 33 28
e 12 15
e 12 8
e 12 66
e 12 52
e 12 60
e 12 69
e 12 13
e 12 31
e 12 35
e 12 53
e 15 1
e 15 16
e 15 25
e 15 7
e 15 65
e 15 18
e 15 26
e 15 11
e 15 6
e 15 9
e 15 21
e 15 39
e 1 60
e 1 28
e 1 55
e 1 5
e 1 14
e 1 41
e 1 3
e 1 45
e 1 67
e 1 35
e 1 53
e 1 39
e 1 48
e 7 67
e 7 35
e 7 53
e 7 25
e 7 43
e 7 24
e 7 65
e 7 46
e 7 55
e 7 64
e 7 13
e 7 17
e 7 26
e 7 2
e 67 51
e 67 43
e 67 70
e 67 63
e 67 14
e 67 66
e 67 28
e 67 9
e 67 50
e 67 23
e 67 4
e 3 42
e 3 55
e 3 23
e 3 9
e 3 18
e 3 45
e 3 49
e 3 21
e 3 39
e 3 16
e 3 6
e 3 52
e 3 61
e 42 17
e 42 69
e 42 64
e 42 26
e 42 45
e 42 2
e 42 21
e 42 5
e 42 16
e 42 8
e 42 48
e 42 11
e 16 10
e 16 54
e 16 63
e 16 49
e 16 25
e 16 34
e 16 47
e 16 60
e 16 55
e 25 66
e 25 28
e 25 37
e 25 31
e 25 49
e 25 44
e 25 39
e 25 6
e 25 34
e 25 52
e 25 9
e 44 61
e 44 60
e 44 69
e 44 18
e 44 32
e 44 21
e 44 13
e 44 38
e 44 53
e 44 6
e 44 48
e 44 28
e 44 39
e 44 4
e 61 14
e 61 55
e 61 65
e 61 69
e 61 45
e 61 48
e 61 10
e 61 51
e 61 24
e 61 43
e 61 66
e 23 38
e 23 11
e 23 14
e 23 70
e 23 50
e 23 21
e 23 5
e 23 49
e 23 62
e 23 57
e 38 34
e 38 64
e 38 26
e 38 8
e 38 10
e 38 11
e 38 20
e 38 31
e 38 9
e 70 63
e 70 47
e 70 9
e 70 64
e 70 10
e 70 32
e 70 62
e 70 8
e 70 49
e 70 41
e 70 60
e 14 66
e 14 65
e 14 2
e 14 63
e 14 62
e 14 10
e 14 20
e 66 2
e 66 54
e 66 10
e 66 21
e 66 24
e 66 5
e 66 8
e 66 60
e 66 22
e 37 49
e 37 62
e 37 39
e 37 43
e 37 65
e 37 26
e 37 21
e 37 32
e 37 13
e 37 8
e 49 50
e 49 54
e 49 2
e 49 24
e 49 46
e 49 57
e 49 9
e 49 51
e 62 2
e 62 21
e 62 54
e 62 35
e 62 11
e 62 69
e 62 47
e 62 20
e 62 53
e 62 4
e 54 43
e 54 41
e 54 22
e 54 9
e 54 20
e 54 64
e 54 4
e 54 45
e 31 47
e 31 6
e 31 69
e 31 55
e 31 50
e 31 39
e 31 48
e 10 50
e 10 35
e 10 39
e 10 11
e 10 55
e 10 18
e 10 13
e 50 22
e 50 5
e 50 52
e 50 64
e 50 34
e 50 18
e 50 53
e 35 18
e 35 48
e 35 6
e 35 28
e 35 65
e 35 51
e 35 69
e 35 45
e 41 46
e 41 11
e 41 22
e 41 4
e 41 53
e 41 34
e 41 57
e 41 24
e 41 47
e 46 28
e 46 63
e 46 9
e 46 48
e 46 57
e 46 65
e 46 60
e 46 55
e 53 32
e 53 24
e 53 17
e 53 20
e 53 39
e 53 45
e 55 22
e 55 69
e 55 32
e 55 57
e 55 43
e 22 60
e 22 32
e 22 17
e 22 20
e 22 63
e 22 26
e 22 5
e 60 17
e 60 26
e 60 32
e 60 24
e 11 45
e 11 5
e 11 52
e 11 24
e 11 51
e 11 69
e 63 32
e 63 13
e 63 24
e 63 8
e 63 52
e 63 17
e 63 34
e 45 52
e 45 43
e 45 20
e 45 47
e 45 51
e 45 64
e 45 4
e 52 34
e 52 26
e 52 13
e 52 28
e 52 20
e 26 48
e 26 43
e 26 13
e 26 65
e 26 32
e 26 69
e 26 2
e 48 21
e 48 51
e 48 17
e 48 20
e 48 9
e 48 4
e 4 20
e 4 51
e 4 32
e 4 8
e 4 17
e 4 2
e 4 57
e 20 51
e 20 43
e 20 9
e 8 17
e 8 57
e 8 2
e 8 69
e 8 28
e 17 65
e 17 69
e 17 32
e 17 18
e 17 2
e 6 47
e 6 65
e 6 18
e 6 5
e 6 39
e 6 43
e 47 69
e 47 2
e 47 34
e 47 21
e 47 43
e 18 57
e 18 34
e 18 28
e 18 32
e 65 28
e 65 39
e 65 21
e 65 51
e 34 2
e 34 5
e 34 51
e 34 64
e 34 28
e 43 5
e 69 9
e 69 2
e 39 21
e 39 5
e 32 64
e 9 51
e 9 28
e 13 24
e 13 28
e 24 57
e 24 51
e 5 64
e 64 51
e 2 51
